certificates/rado_a14_c268_N29.cnf
c Rad2 upper bound instance: x1 + 14*x2 - x3 = 268, interval [1,29]
p cnf 29 120
1 13 20 0
-1 -13 -20 0
1 21 27 0
-1 -21 -27 0
2 14 20 0
-2 -14 -20 0
2 21 28 0
-2 -21 -28 0
1 3 19 0
-1 -3 -19 0
3 15 20 0
-3 -15 -20 0
3 21 29 0
-3 -21 -29 0
2 4 19 0
-2 -4 -19 0
4 16 20 0
-4 -16 -20 0
3 5 19 0
-3 -5 -19 0
5 17 20 0
-5 -17 -20 0
4 6 19 0
-4 -6 -19 0
6 18 20 0
-6 -18 -20 0
5 7 19 0
-5 -7 -19 0
7 19 20 0
-7 -19 -20 0
6 8 19 0
-6 -8 -19 0
8 20 0
-8 -20 0
7 9 19 0
-7 -9 -19 0
9 20 21 0
-9 -20 -21 0
8 10 19 0
-8 -10 -19 0
10 20 22 0
-10 -20 -22 0
9 11 19 0
-9 -11 -19 0
11 20 23 0
-11 -20 -23 0
10 12 19 0
-10 -12 -19 0
12 20 24 0
-12 -20 -24 0
11 13 19 0
-11 -13 -19 0
13 20 25 0
-13 -20 -25 0
12 14 19 0
-12 -14 -19 0
14 20 26 0
-14 -20 -26 0
13 15 19 0
-13 -15 -19 0
15 20 27 0
-15 -20 -27 0
14 16 19 0
-14 -16 -19 0
16 20 28 0
-16 -20 -28 0
1 17 18 0
-1 -17 -18 0
15 17 19 0
-15 -17 -19 0
17 20 29 0
-17 -20 -29 0
2 18 0
-2 -18 0
16 18 19 0
-16 -18 -19 0
3 18 19 0
-3 -18 -19 0
17 19 0
-17 -19 0
4 18 20 0
-4 -18 -20 0
18 19 20 0
-18 -19 -20 0
5 18 21 0
-5 -18 -21 0
19 21 0
-19 -21 0
6 18 22 0
-6 -18 -22 0
19 20 22 0
-19 -20 -22 0
7 18 23 0
-7 -18 -23 0
19 21 23 0
-19 -21 -23 0
8 18 24 0
-8 -18 -24 0
19 22 24 0
-19 -22 -24 0
9 18 25 0
-9 -18 -25 0
19 23 25 0
-19 -23 -25 0
10 18 26 0
-10 -18 -26 0
19 24 26 0
-19 -24 -26 0
11 18 27 0
-11 -18 -27 0
19 25 27 0
-19 -25 -27 0
12 18 28 0
-12 -18 -28 0
19 26 28 0
-19 -26 -28 0
13 18 29 0
-13 -18 -29 0
19 27 29 0
-19 -27 -29 0
