certificates/rado_a14_c268_N29.drat
-27 -29 0
d -27 -19 -29 0
-21 -28 -29 0
-18 -19 -28 0
-28 -29 0
d -21 -28 -29 0
21 28 0
d 21 2 28 0
-21 -29 0
d -21 -3 -29 0
-29 0
-18 -21 0
-21 0
28 0
3 0
19 0
-1 0
-5 0
-18 0
-17 0
-26 0
27 0
0
